8627
34, 44, 46, 37, 40, 38, 48, 24, 5, 6, 15, 33, 51, 12, 11, 52, 14, 13, 47, 26, 27, 28, 25, 4, 43, 9, 10, 8, 41, 45, 19, 3, 18, 31, 23, 20, 50, 16, 29, 30, 42, 2, 7, 17, 21, 22, 1, 49, 32, 39, 36, 35
